Water Network: d13_modena.dat
*******************************************************************************

-------------------------------- Solving with gurobi --------------------------
min_demand: 0
max_demand: 0.00947
max_flow: 0.4069399999999997
eps: 3.919527346039423e-08 

Gurobi 11.0.2: Set parameter LogToConsole to value 1
  tech:outlev = 1
Set parameter Presolve to value 1
  pre:solve = 1
Set parameter TimeLimit to value 3600
  lim:time = 3600
Set parameter Method to value 2
  alg:method = 2
  alg:start = 1
Set parameter BarConvTol to value 1e-09
  bar:convtol = 1e-09
Set parameter FeasibilityTol to value 1e-05
  alg:feastol = 1e-05
  sol:chk:feastolrel = 0
Set parameter MIPGap to value 1e-09
  mip:gap = 1e-09
Set parameter InfUnbdInfo to value 1
Gurobi Optimizer version 11.0.2 build v11.0.2rc0 (linux64 - "Ubuntu 25.04")

CPU model: 11th Gen Intel(R) Core(TM) i5-1135G7 @ 2.40GHz, instruction set [SSE2|AVX|AVX2|AVX512]
Thread count: 4 physical cores, 8 logical processors, using up to 8 threads

Optimize a model with 585 rows, 6608 columns and 4751 nonzeros
Model fingerprint: 0xe83c8cf3
Model has 1585 quadratic constraints
Model has 634 general constraints
Variable types: 6608 continuous, 0 integer (0 binary)
Coefficient statistics:
  Matrix range     [1e+00, 1e+00]
  QMatrix range    [4e-03, 1e+02]
  QLMatrix range   [1e+00, 1e+00]
  Objective range  [3e+01, 4e+02]
  Bounds range     [2e-08, 3e+07]
  RHS range        [1e-05, 1e+03]
  QRHS range       [2e-08, 7e+01]
Presolve added 1993 rows and 8314 columns
Presolve time: 0.13s
Presolved: 24394 rows, 19360 columns, 94771 nonzeros
Presolved model has 634 SOS constraint(s)
Presolved model has 5370 bilinear constraint(s)

Solving non-convex MIQCP

Variable types: 19360 continuous, 0 integer (0 binary)
Root barrier log...

Ordering time: 0.18s

Barrier statistics:
 AA' NZ     : 2.740e+05
 Factor NZ  : 3.941e+05 (roughly 20 MB of memory)
 Factor Ops : 9.170e+06 (less than 1 second per iteration)
 Threads    : 4

                  Objective                Residual
Iter       Primal          Dual         Primal    Dual     Compl     Time
   0   4.74826859e+11 -4.91960218e+11  1.04e+10 0.00e+00  4.52e+07     1s
   1   7.47857938e+10 -8.46862449e+10  1.64e+09 5.34e-03  7.10e+06     1s
   2   6.39830794e+08 -5.59174297e+09  1.37e+07 5.04e-05  1.41e+05     2s
   3   2.32971305e+07 -1.48015739e+08  4.40e+05 3.82e-06  3.77e+03     2s
   4   6.18067037e+06 -2.92812492e+07  4.39e+04 9.00e-06  6.63e+02     2s
   5   3.35150874e+06 -1.73269715e+06  7.31e+03 5.78e-06  9.34e+01     3s
   6   2.33534833e+06  7.96617080e+05  1.58e+03 6.25e-06  2.76e+01     3s
   7   2.04280139e+06  1.86025956e+06  2.22e+02 2.46e-06  2.91e+00     3s
   8   1.99928874e+06  1.97776916e+06  2.35e+01 3.39e-06  3.08e-01     3s
   9   1.99416501e+06  2.02022191e+06  7.09e+00 3.73e-06  5.13e-02     4s
  10   1.99328728e+06  2.02094054e+06  4.73e+00 3.76e-06  3.27e-02     4s
  11   1.99283875e+06  2.01513816e+06  3.64e+00 3.83e-06  2.39e-02     5s
  12   1.99212537e+06  2.00282810e+06  1.95e+00 3.90e-06  1.24e-02     5s
  13   1.99176680e+06  1.97969731e+06  1.22e+00 3.95e-06  7.72e-03     6s
  14   1.99148041e+06  1.97306576e+06  7.48e-01 3.95e-06  4.79e-03     7s
  15   1.99123318e+06  1.97687727e+06  4.32e-01 3.95e-06  2.63e-03     7s
  16   1.99112160e+06  1.97161645e+06  3.23e-01 3.82e-06  1.72e-03     8s
  17   1.99095632e+06  1.97938029e+06  1.69e-01 3.60e-06  9.58e-04     8s
  18   1.99086309e+06  1.98576719e+06  1.17e-01 3.53e-06  7.00e-04     9s
  19   1.99084049e+06  1.98565065e+06  1.08e-01 3.53e-06  6.45e-04     9s
  20   1.99075384e+06  1.97743480e+06  7.30e-02 3.71e-06  5.04e-04    11s
  21   1.99067800e+06  1.97537113e+06  5.03e-02 3.72e-06  3.41e-04    11s
  22   1.99063301e+06  1.98979897e+06  4.03e-02 3.89e-06  2.87e-04    13s
  23   1.99058220e+06  1.99195058e+06  3.08e-02 3.90e-06  2.39e-04    15s
  24   1.99056536e+06  1.99346981e+06  2.80e-02 3.90e-06  2.26e-04    16s
  25   1.99053902e+06  1.99154845e+06  2.44e-02 3.90e-06  2.19e-04    22s
  26   1.99053352e+06  1.98365001e+06  2.37e-02 3.90e-06  2.13e-04    22s
  27   1.99048413e+06  1.97553791e+06  1.73e-02 3.90e-06  1.61e-04    22s
  28   1.99043225e+06  1.98621677e+06  1.18e-02 3.91e-06  1.37e-04    24s
  29   1.99040021e+06  1.98753816e+06  9.34e-03 3.91e-06  1.19e-04    24s
  30   1.99039206e+06  1.98653527e+06  8.58e-03 3.90e-06  1.21e-04    26s
  31   1.99037757e+06  1.98709541e+06  7.58e-03 3.90e-06  1.14e-04    26s
  32   1.99037038e+06  1.98747022e+06  7.22e-03 3.91e-06  1.10e-04    26s
  33   1.99034879e+06  1.98414270e+06  6.17e-03 3.90e-06  9.47e-05    27s
  34   1.99034555e+06  1.98469866e+06  6.00e-03 3.80e-06  9.25e-05    27s
  35   1.99032404e+06  2.00774409e+06  4.62e-03 1.34e-06  2.44e-04    28s
  36   1.99030554e+06  1.99869551e+06  3.93e-03 1.50e-06  1.64e-04    28s
  37   1.99029037e+06  1.99586299e+06  3.47e-03 1.59e-06  1.39e-04    29s
  38   1.99028427e+06  1.99572754e+06  3.31e-03 1.59e-06  1.34e-04    31s
  39   1.99026918e+06  1.99586458e+06  2.88e-03 1.58e-06  1.24e-04    32s
  40   1.99025563e+06  1.99574919e+06  2.55e-03 1.53e-06  1.12e-04    32s
  41   1.99024584e+06  1.99022942e+06  2.28e-03 1.31e-06  1.28e-04    32s
  42   1.99022062e+06  1.99057007e+06  1.79e-03 1.31e-06  1.13e-04    35s
  43   1.99019579e+06  1.99394835e+06  1.36e-03 1.31e-06  1.04e-04    42s
  44   1.99019135e+06  1.99110476e+06  1.30e-03 1.31e-06  9.65e-05    45s
  45   1.99017567e+06  1.99186722e+06  1.09e-03 1.31e-06  8.27e-05    46s
  46   1.99016875e+06  1.99289647e+06  1.01e-03 1.31e-06  7.93e-05    51s
  47   1.99015607e+06  1.99183484e+06  8.85e-04 1.31e-06  7.00e-05    57s
  48   1.99014487e+06  1.99182625e+06  7.93e-04 1.31e-06  6.99e-05    61s
  49   1.99013418e+06  1.99123159e+06  6.94e-04 1.31e-06  7.49e-05    68s
  50   1.99011846e+06  1.98878076e+06  5.57e-04 1.31e-06  6.93e-05    78s
  51   1.99010837e+06  1.98565655e+06  4.73e-04 1.31e-06  6.60e-05    82s
  52   1.99009277e+06  1.98776199e+06  3.97e-04 1.31e-06  5.48e-05    84s
  53   1.99008478e+06  1.98632076e+06  3.59e-04 1.29e-06  5.23e-05    95s
  54   1.99005498e+06  1.98590089e+06  2.06e-04 1.29e-06  3.50e-05   107s
  55   1.99005035e+06  1.98686789e+06  1.98e-04 1.30e-06  3.56e-05   113s
  56   1.99002936e+06  1.99068409e+06  1.37e-04 1.29e-06  2.67e-05   113s
  57   1.99002021e+06  1.99202877e+06  1.37e-04 1.29e-06  2.49e-05   113s
  58   1.99001241e+06  1.99525926e+06  1.07e-04 1.29e-06  2.27e-05   115s
  59   1.98999424e+06  1.99593506e+06  8.39e-05 1.29e-06  2.17e-05   116s
  60   1.98998983e+06  1.99776230e+06  6.87e-05 1.29e-06  2.47e-05   123s
  61   1.98998045e+06  1.99615306e+06  7.63e-05 1.29e-06  2.70e-05   124s
  62   1.98997699e+06  1.99357230e+06  6.10e-05 1.29e-06  2.81e-05   131s
  63   1.98996019e+06  1.99350733e+06  3.81e-05 1.29e-06  2.28e-05   149s
  64   1.98993427e+06  1.99231827e+06  2.29e-05 1.29e-06  5.16e-05   166s
  65   1.98993070e+06  1.99432629e+06  3.05e-05 1.29e-06  1.73e-05   173s
  66   1.98992438e+06  1.99511984e+06  1.53e-05 1.26e-06  1.38e-05   174s
  67   1.98990240e+06  1.99650476e+06  1.53e-05 1.25e-06  9.52e-06   174s
  68   1.98988209e+06  1.99609520e+06  7.63e-06 1.25e-06  6.83e-06   184s
  69   1.98987480e+06  1.99619708e+06  7.63e-06 1.25e-06  6.17e-06   185s
  70   1.98984628e+06  1.99575065e+06  7.63e-06 1.25e-06  1.46e-05   192s
  71   1.98984330e+06  1.99461294e+06  7.63e-06 1.25e-06  5.54e-06   192s
  72   1.98983874e+06  1.99391740e+06  7.63e-06 1.25e-06  1.18e-05   200s
  73   1.98982577e+06  1.99432097e+06  7.63e-06 1.25e-06  1.36e-05   202s
  74   1.98980978e+06  1.99406133e+06  7.63e-06 1.25e-06  5.99e-05   217s
  75   1.98980469e+06  1.98308342e+06  7.63e-06 1.27e-06  5.68e-05   233s
  76   1.98978728e+06  1.98199552e+06  7.63e-06 1.28e-06  5.19e-05   238s
  77   1.98976921e+06  1.98227515e+06  7.63e-06 1.28e-06  3.03e-04   271s
  78   1.98975358e+06  1.98204285e+06  3.81e-06 1.28e-06  5.20e-05   274s
  79   1.98973982e+06  1.97945119e+06  7.63e-06 1.28e-06  4.75e-05   281s
  80   1.98965134e+06  1.97525981e+06  7.63e-06 1.28e-06  1.10e-05   297s
  81   1.98965000e+06  1.97522038e+06  7.63e-06 1.28e-06  1.02e-05   299s
  82   1.98963252e+06  1.97538059e+06  7.63e-06 1.28e-06  1.92e-05   300s
  83   1.98960966e+06  1.97534293e+06  7.63e-06 1.28e-06  1.50e-05   301s
  84   1.98960270e+06  1.97520230e+06  1.14e-05 1.28e-06  6.67e-06   301s
  85   1.98961952e+06  1.97575275e+06  5.72e-06 1.28e-06  7.13e-05   302s
  86   1.98961426e+06  1.97509783e+06  7.63e-06 1.28e-06  3.74e-06   302s
  87   1.98960506e+06  1.97621103e+06  7.63e-06 1.29e-06  3.28e-06   303s
  88   1.98957587e+06  1.97356023e+06  7.63e-06 1.28e-06  2.35e-06   304s
  89   1.98957558e+06  1.97516169e+06  3.81e-06 1.28e-06  2.25e-06   305s
  90   1.98955803e+06  1.97557459e+06  7.63e-06 1.28e-06  1.71e-06   306s
  91   1.98955751e+06  1.98231437e+06  7.63e-06 1.28e-06  1.69e-06   306s
  92   1.98953183e+06  1.98503321e+06  7.63e-06 1.28e-06  3.15e-07   306s
  93   1.98952247e+06  1.98501515e+06  7.63e-06 1.28e-06  2.24e-07   307s
  94   1.98952234e+06  1.98690089e+06  7.63e-06 1.28e-06  3.90e-07   308s
  95   1.98950525e+06  1.98699459e+06  7.63e-06 1.28e-06  1.76e-07   308s
  96   1.98950452e+06  1.98699849e+06  7.63e-06 1.28e-06  1.84e-07   309s
